c DCNF-Autarky [version 0.0.1]. 
c Copyright (c) 2018-2019 Swansea University. 
c 
c Input QBF/DQBF path: Castellini18//toilet_c_08_05.2.qdimacs
c Output SAT Translation Path: /tmp/toilet_c_08_05.2.qdimacs-dcnfAutarky.dimacs
c Input Clause Count (tautology free): 857
c
c Performing E1-Autarky iteration.
c Remaining clauses count after E-Reduction: 597
c
c Performing A1-Autarky iteration.
c Running Lingeling ... 
c
c Remaining clauses count after A-Reduction: 597
c
c Input Parameter (command line, file): 
c input filename   Castellini18//toilet_c_08_05.2.qdimacs
c output filename  /tmp/toilet_c_08_05.2.qdimacs-dcnfAutarky.dimacs
c autarky level    1
c conformity level 0
c encoding type    2
c no.of var        135
c no.of clauses    857
c no.of taut cls   0
c 
c Output Parameters: 
c remaining no.of clauses  597
c
c filename pn pc autarky ntaut rpa rpe rpcdiff result
c "Castellini18//toilet_c_08_05.2.qdimacs" 135 857 "E1+A1" 0 3 87 260 "RED" 
p cnf 135 597
e 14 15 16 17 18 19 20 21 22 23 24 25 26 27 28 29 30 31 32 33 34 35 36 37 38 39 40 41 42 43 44 45 46 47 48 49 50 51 52 53 54 55 56 57 58 59 60 61 62 63 64 65 66 67 68 69 70 71 72 73 74 75 76 77 78 79 80 81 82 83 84 85 86 87 88 89 90 91 92 93 94 95 96 97 98 99 100 101 102 103 0
a 113 112 114 0
e 1 2 3 4 5 6 7 8 9 10 11 12 13 104 105 106 107 108 109 110 111 115 116 117 118 119 120 121 122 123 124 125 126 127 128 129 130 131 132 133 134 135 0
-112 -113 -115 114 0
-112 -113 -116 114 0
-112 -113 -117 114 0
-112 -113 -118 114 0
-112 -113 -119 114 0
-112 -113 114 120 0
-112 -113 -121 114 0
-112 -113 -122 114 0
-113 -114 -115 112 0
-113 -114 -116 112 0
-113 -114 -117 112 0
-113 -114 -118 112 0
-113 -114 112 119 0
-113 -114 -120 112 0
-113 -114 -121 112 0
-113 -114 -122 112 0
-113 -115 112 114 0
-113 -116 112 114 0
-113 -117 112 114 0
-113 112 114 118 0
-113 -119 112 114 0
-113 -120 112 114 0
-113 -121 112 114 0
-113 -122 112 114 0
-112 -114 -115 113 0
-112 -114 -116 113 0
-112 -114 113 117 0
-112 -114 -118 113 0
-112 -114 -119 113 0
-112 -114 -120 113 0
-112 -114 -121 113 0
-112 -114 -122 113 0
-112 -115 113 114 0
-112 113 114 116 0
-112 -117 113 114 0
-112 -118 113 114 0
-112 -119 113 114 0
-112 -120 113 114 0
-112 -121 113 114 0
-112 -122 113 114 0
-114 112 113 115 0
-114 -116 112 113 0
-114 -117 112 113 0
-114 -118 112 113 0
-114 -119 112 113 0
-114 -120 112 113 0
-114 -121 112 113 0
-114 -122 112 113 0
-115 112 113 114 0
-116 112 113 114 0
-117 112 113 114 0
-118 112 113 114 0
-119 112 113 114 0
-120 112 113 114 0
-121 112 113 114 0
112 113 114 122 0
-112 -113 -114 -115 0
-112 -113 -114 -116 0
-112 -113 -114 -117 0
-112 -113 -114 -118 0
-112 -113 -114 -119 0
-112 -113 -114 -120 0
-112 -113 -114 121 0
-112 -113 -114 -122 0
-123 0
-124 0
-125 0
-126 0
-127 0
-128 0
-129 0
-130 0
-131 0
-132 0
-133 0
-134 0
-135 0
-14 -135 0
-14 -127 0
-16 -128 0
-16 -135 0
-18 -129 0
-18 -135 0
-20 -130 0
-20 -135 0
-22 -131 0
-22 -135 0
-24 -132 0
-24 -135 0
-26 -133 0
-26 -135 0
-28 -134 0
-28 -135 0
-32 -123 0
-32 -127 0
-34 -123 0
-34 -128 0
-36 -123 0
-36 -129 0
-38 -123 0
-38 -130 0
-40 -123 0
-40 -131 0
-42 -123 0
-42 -132 0
-44 -123 0
-44 -133 0
-46 -123 0
-46 -134 0
-50 -124 0
-50 -127 0
-52 -124 0
-52 -128 0
-54 -124 0
-54 -129 0
-56 -124 0
-56 -130 0
-58 -124 0
-58 -131 0
-60 -124 0
-60 -132 0
-62 -124 0
-62 -133 0
-64 -124 0
-64 -134 0
-68 -125 0
-68 -127 0
-70 -125 0
-70 -128 0
-72 -125 0
-72 -129 0
-74 -125 0
-74 -130 0
-76 -125 0
-76 -131 0
-78 -125 0
-78 -132 0
-80 -125 0
-80 -133 0
-82 -125 0
-82 -134 0
-86 -126 0
-86 -127 0
-88 -126 0
-88 -128 0
-90 -126 0
-90 -129 0
-92 -126 0
-92 -130 0
-94 -126 0
-94 -131 0
-96 -126 0
-96 -132 0
-98 -126 0
-98 -133 0
-100 -126 0
-100 -134 0
-29 135 0
-47 123 0
-65 124 0
-83 125 0
-101 126 0
-14 2 0
-14 -104 0
-14 1 0
-16 3 0
-16 -105 0
-16 2 0
-18 4 0
-18 -106 0
-18 2 0
-20 5 0
-20 -107 0
-20 2 0
-22 6 0
-22 -108 0
-22 2 0
-24 7 0
-24 -109 0
-24 2 0
-26 8 0
-26 -110 0
-26 2 0
-28 9 0
-28 -111 0
-28 2 0
-32 10 0
-32 -104 0
-32 1 0
-34 10 0
-34 -105 0
-34 3 0
-36 10 0
-36 -106 0
-36 4 0
-38 10 0
-38 -107 0
-38 5 0
-40 10 0
-40 -108 0
-40 6 0
-42 10 0
-42 -109 0
-42 7 0
-44 10 0
-44 -110 0
-44 8 0
-46 10 0
-46 -111 0
-46 9 0
-50 11 0
-50 -104 0
-50 1 0
-52 11 0
-52 -105 0
-52 3 0
-54 11 0
-54 -106 0
-54 4 0
-56 11 0
-56 -107 0
-56 5 0
-58 11 0
-58 -108 0
-58 6 0
-60 11 0
-60 -109 0
-60 7 0
-62 11 0
-62 -110 0
-62 8 0
-64 11 0
-64 -111 0
-64 9 0
-68 12 0
-68 -104 0
-68 1 0
-70 12 0
-70 -105 0
-70 3 0
-72 12 0
-72 -106 0
-72 4 0
-74 12 0
-74 -107 0
-74 5 0
-76 12 0
-76 -108 0
-76 6 0
-78 12 0
-78 -109 0
-78 7 0
-80 12 0
-80 -110 0
-80 8 0
-82 12 0
-82 -111 0
-82 9 0
-86 13 0
-86 -104 0
-86 1 0
-88 13 0
-88 -105 0
-88 3 0
-90 13 0
-90 -106 0
-90 4 0
-92 13 0
-92 -107 0
-92 5 0
-94 13 0
-94 -108 0
-94 6 0
-96 13 0
-96 -109 0
-96 7 0
-98 13 0
-98 -110 0
-98 8 0
-100 13 0
-100 -111 0
-100 9 0
-2 -29 0
-10 -47 0
-11 -65 0
-12 -83 0
-13 -101 0
-1 14 32 50 68 86 127 0
-127 1 0
-2 14 16 18 20 22 24 26 28 135 0
-135 2 29 0
-104 122 0
-122 14 32 50 68 86 104 0
-3 16 34 52 70 88 128 0
-128 3 0
-105 115 0
-115 16 34 52 70 88 105 0
-4 18 36 54 72 90 129 0
-129 4 0
-106 116 0
-116 18 36 54 72 90 106 0
-5 20 38 56 74 92 130 0
-130 5 0
-107 117 0
-117 20 38 56 74 92 107 0
-6 22 40 58 76 94 131 0
-131 6 0
-108 118 0
-118 22 40 58 76 94 108 0
-7 24 42 60 78 96 132 0
-132 7 0
-109 119 0
-119 24 42 60 78 96 109 0
-8 26 44 62 80 98 133 0
-133 8 0
-110 120 0
-120 26 44 62 80 98 110 0
-9 28 46 64 82 100 134 0
-134 9 0
-111 121 0
-121 28 46 64 82 100 111 0
-10 32 34 36 38 40 42 44 46 123 0
-123 10 47 0
-11 50 52 54 56 58 60 62 64 124 0
-124 11 65 0
-12 68 70 72 74 76 78 80 82 125 0
-125 12 83 0
-13 86 88 90 92 94 96 98 100 126 0
-126 13 101 0
-14 -16 0
-14 -18 0
-14 -20 0
-14 -22 0
-14 -24 0
-14 -26 0
-14 -28 0
-14 -32 0
-14 -50 0
-14 -68 0
-14 -86 0
-14 -29 0
-16 -18 0
-16 -20 0
-16 -22 0
-16 -24 0
-16 -26 0
-16 -28 0
-16 -34 0
-16 -52 0
-16 -70 0
-16 -88 0
-16 -29 0
-18 -20 0
-18 -22 0
-18 -24 0
-18 -26 0
-18 -28 0
-18 -36 0
-18 -54 0
-18 -72 0
-18 -90 0
-18 -29 0
-20 -22 0
-20 -24 0
-20 -26 0
-20 -28 0
-20 -38 0
-20 -56 0
-20 -74 0
-20 -92 0
-20 -29 0
-22 -24 0
-22 -26 0
-22 -28 0
-22 -40 0
-22 -58 0
-22 -76 0
-22 -94 0
-22 -29 0
-24 -26 0
-24 -28 0
-24 -42 0
-24 -60 0
-24 -78 0
-24 -96 0
-24 -29 0
-26 -28 0
-26 -44 0
-26 -62 0
-26 -80 0
-26 -98 0
-26 -29 0
-28 -46 0
-28 -64 0
-28 -82 0
-28 -100 0
-28 -29 0
-32 -34 0
-32 -36 0
-32 -38 0
-32 -40 0
-32 -42 0
-32 -44 0
-32 -46 0
-32 -50 0
-32 -68 0
-32 -86 0
-32 -47 0
-34 -36 0
-34 -38 0
-34 -40 0
-34 -42 0
-34 -44 0
-34 -46 0
-34 -52 0
-34 -70 0
-34 -88 0
-34 -47 0
-36 -38 0
-36 -40 0
-36 -42 0
-36 -44 0
-36 -46 0
-36 -54 0
-36 -72 0
-36 -90 0
-36 -47 0
-38 -40 0
-38 -42 0
-38 -44 0
-38 -46 0
-38 -56 0
-38 -74 0
-38 -92 0
-38 -47 0
-40 -42 0
-40 -44 0
-40 -46 0
-40 -58 0
-40 -76 0
-40 -94 0
-40 -47 0
-42 -44 0
-42 -46 0
-42 -60 0
-42 -78 0
-42 -96 0
-42 -47 0
-44 -46 0
-44 -62 0
-44 -80 0
-44 -98 0
-44 -47 0
-46 -64 0
-46 -82 0
-46 -100 0
-46 -47 0
-50 -52 0
-50 -54 0
-50 -56 0
-50 -58 0
-50 -60 0
-50 -62 0
-50 -64 0
-50 -68 0
-50 -86 0
-50 -65 0
-52 -54 0
-52 -56 0
-52 -58 0
-52 -60 0
-52 -62 0
-52 -64 0
-52 -70 0
-52 -88 0
-52 -65 0
-54 -56 0
-54 -58 0
-54 -60 0
-54 -62 0
-54 -64 0
-54 -72 0
-54 -90 0
-54 -65 0
-56 -58 0
-56 -60 0
-56 -62 0
-56 -64 0
-56 -74 0
-56 -92 0
-56 -65 0
-58 -60 0
-58 -62 0
-58 -64 0
-58 -76 0
-58 -94 0
-58 -65 0
-60 -62 0
-60 -64 0
-60 -78 0
-60 -96 0
-60 -65 0
-62 -64 0
-62 -80 0
-62 -98 0
-62 -65 0
-64 -82 0
-64 -100 0
-64 -65 0
-68 -70 0
-68 -72 0
-68 -74 0
-68 -76 0
-68 -78 0
-68 -80 0
-68 -82 0
-68 -86 0
-68 -83 0
-70 -72 0
-70 -74 0
-70 -76 0
-70 -78 0
-70 -80 0
-70 -82 0
-70 -88 0
-70 -83 0
-72 -74 0
-72 -76 0
-72 -78 0
-72 -80 0
-72 -82 0
-72 -90 0
-72 -83 0
-74 -76 0
-74 -78 0
-74 -80 0
-74 -82 0
-74 -92 0
-74 -83 0
-76 -78 0
-76 -80 0
-76 -82 0
-76 -94 0
-76 -83 0
-78 -80 0
-78 -82 0
-78 -96 0
-78 -83 0
-80 -82 0
-80 -98 0
-80 -83 0
-82 -100 0
-82 -83 0
-86 -88 0
-86 -90 0
-86 -92 0
-86 -94 0
-86 -96 0
-86 -98 0
-86 -100 0
-86 -101 0
-88 -90 0
-88 -92 0
-88 -94 0
-88 -96 0
-88 -98 0
-88 -100 0
-88 -101 0
-90 -92 0
-90 -94 0
-90 -96 0
-90 -98 0
-90 -100 0
-90 -101 0
-92 -94 0
-92 -96 0
-92 -98 0
-92 -100 0
-92 -101 0
-94 -96 0
-94 -98 0
-94 -100 0
-94 -101 0
-96 -98 0
-96 -100 0
-96 -101 0
-98 -100 0
-98 -101 0
-100 -101 0
-104 0
-105 0
-106 0
-107 0
-108 0
-109 0
-110 0
-111 0
